p cnf 20 48
a 1 2 0
e 3 4 5 6 7 8 9 10 11 12 13 14 15 16 17 18 19 20 0
-1 2 -3 0
1 -2 -3 0
-1 -2 3 0
1 2 3 0
-6 -4 0
-6 5 0
4 -5 6 0
7 4 -8 0
-7 -4 -8 0
7 -4 8 0
-7 4 8 0
-6 8 -9 0
6 -8 -9 0
-6 -8 9 0
6 8 9 0
11 -4 -12 0
-11 4 -12 0
11 4 12 0
-11 -4 12 0
10 12 -13 0
-10 -12 -13 0
10 -12 13 0
-10 12 13 0
14 9 0
14 -13 0
-9 13 -14 0
15 4 0
15 -5 0
-4 5 -15 0
16 -14 0
16 15 0
14 -15 -16 0
-3 16 -17 0
3 -16 -17 0
-3 -16 17 0
3 16 17 0
19 18 0
19 11 0
-18 -11 -19 0
17 19 -20 0
-17 -19 -20 0
17 -19 20 0
-17 19 20 0
-11 -13 9 -12 -4 0
-19 -2 0
5 2 7 20 0
1 -14 -13 -17 -5 -6 -18 0
20 0
